benchmark/results/graph__15-1000-0.10-02_3/error_log/graph__15-1000-0.10-02_3_Quinton_Benders_primal_sub_ERRORLOG.lp
\ This file has been generated by DOcplex
\ ENCODING=ISO-8859-1
\Problem name: Quinton Benders_primal_sub

Maximize
 obj: tau
Subject To
 c1: tau <= 0.001176470588
 c2: y_a0_proc_0 + y_a0_proc_1 - tau = 0
 c3: y_a0_proc_0 <= 0
 c4: y_a0_proc_1 <= 1
 c5: tau <= 0.000823723229
 c6: y_a1_proc_1 - tau = 0
 c7: y_a1_proc_1 <= 1
 c8: tau <= 0.001111111111
 c9: y_a2_proc_0 + y_a2_proc_1 - tau = 0
 c10: y_a2_proc_0 <= 0
 c11: y_a2_proc_1 <= 1
 c12: tau <= 0.001293661061
 c13: y_a3_proc_0 + y_a3_proc_1 - tau = 0
 c14: y_a3_proc_0 <= 1
 c15: y_a3_proc_1 <= 0
 c16: tau <= 0.000925925926
 c17: y_a4_proc_0 + y_a4_proc_1 - tau = 0
 c18: y_a4_proc_0 <= 1
 c19: y_a4_proc_1 <= 0
 c20: tau <= 0.000783085356
 c21: y_a5_proc_0 + y_a5_proc_1 - tau = 0
 c22: y_a5_proc_0 <= 1
 c23: y_a5_proc_1 <= 0
 c24: tau <= 0.001074113856
 c25: y_a6_proc_0 + y_a6_proc_1 - tau = 0
 c26: y_a6_proc_0 <= 1
 c27: y_a6_proc_1 <= 0
 c28: tau <= 0.001324503311
 c29: y_a7_proc_0 - tau = 0
 c30: y_a7_proc_0 <= 1
 c31: tau <= 0.000885739593
 c32: y_a8_proc_0 + y_a8_proc_1 - tau = 0
 c33: y_a8_proc_0 <= 0
 c34: y_a8_proc_1 <= 1
 c35: tau <= 0.001094091904
 c36: y_a9_proc_0 + y_a9_proc_1 - tau = 0
 c37: y_a9_proc_0 <= 0
 c38: y_a9_proc_1 <= 1
 c39: tau <= 0.001381215470
 c40: y_a10_proc_0 + y_a10_proc_1 - tau = 0
 c41: y_a10_proc_0 <= 1
 c42: y_a10_proc_1 <= 0
 c43: tau <= 0.000973709834
 c44: y_a11_proc_1 - tau = 0
 c45: y_a11_proc_1 <= 1
 c46: tau <= 0.001173708920
 c47: y_a12_proc_0 - tau = 0
 c48: y_a12_proc_0 <= 1
 c49: tau <= 0.001118568233
 c50: y_a13_proc_0 - tau = 0
 c51: y_a13_proc_0 <= 1
 c52: tau <= 0.001223990208
 c53: y_a14_proc_0 + y_a14_proc_1 - tau = 0
 c54: y_a14_proc_0 <= 1
 c55: y_a14_proc_1 <= 0
 c56: u_a0 - u_a1 - 1214 y_a1_proc_1 >= 0
 c57: u_a2 - u_a0 - 1280 y_a0_proc_0 - 850 y_a0_proc_1 >= -1
 c58: u_a2 - u_a3 - 773 y_a3_proc_0 - 907 y_a3_proc_1 >= 0
 c59: u_a2 - u_a4 - 1080 y_a4_proc_0 - 851 y_a4_proc_1 >= 0
 c60: u_a0 - u_a5 - 1277 y_a5_proc_0 - 844 y_a5_proc_1 >= 0
 c61: u_a1 - u_a6 - 931 y_a6_proc_0 - 1038 y_a6_proc_1 >= 0
 c62: u_a7 - u_a4 - 1080 y_a4_proc_0 - 851 y_a4_proc_1 >= 0
 c63: u_a6 - u_a8 - 711 y_a8_proc_0 - 1129 y_a8_proc_1 >= 0
 c64: u_a9 - u_a7 - 755 y_a7_proc_0 >= -1
 c65: u_a10 - u_a8 - 711 y_a8_proc_0 - 1129 y_a8_proc_1 >= 0
 c66: u_a6 - u_a11 - 1027 y_a11_proc_1 >= 0
 c67: u_a12 - u_a10 - 724 y_a10_proc_0 - 1000 y_a10_proc_1 >= 0
 c68: u_a10 - u_a13 - 894 y_a13_proc_0 >= 0
 c69: u_a14 - u_a6 - 931 y_a6_proc_0 - 1038 y_a6_proc_1 >= 0
 c70: u_a11 - u_a12 - 852 y_a12_proc_0 >= -1
 c71: u_a1 - u_a14 - 817 y_a14_proc_0 - 625 y_a14_proc_1 >= 0
 c72: u_a11 - u_a7 - 755 y_a7_proc_0 >= -1
 c73: u_a7 - u_a10 - 724 y_a10_proc_0 - 1000 y_a10_proc_1 >= 0
 c74: u_a4 - u_a11 - 1027 y_a11_proc_1 >= 0
 c75: u_a7 - u_a12 - 852 y_a12_proc_0 >= 0
 c76: u_a3 - u_a4 - 1080 y_a4_proc_0 - 851 y_a4_proc_1 >= 0
 c77: u_a4 - u_a9 - 773 y_a9_proc_0 - 914 y_a9_proc_1 >= -1
 c78: u_a13 - u_a2 - 986 y_a2_proc_0 - 900 y_a2_proc_1 >= 0
 c79: u_a13 - u_a0 - 1280 y_a0_proc_0 - 850 y_a0_proc_1 >= 0
 c80: u_a13 - u_a9 - 773 y_a9_proc_0 - 914 y_a9_proc_1 >= 0
 c81: u_a11 - u_a8 - 711 y_a8_proc_0 - 1129 y_a8_proc_1 >= 0
 c82: u_a5 - u_a12 - 852 y_a12_proc_0 >= -1
 c83: u_a1 - u_a0 - 850 y_a0_proc_1 >= -1
 c84: u_a0 - u_a1 - 1214 y_a1_proc_1 >= 0
 c85: u_a2 - u_a0 - 1280 y_a0_proc_0 >= -2560
 c86: u_a2 - u_a0 - 850 y_a0_proc_1 >= 0
 c87: u_a0 - u_a2 - 986 y_a2_proc_0 >= -2561
 c88: u_a0 - u_a2 - 900 y_a2_proc_1 >= -1
 c89: u_a3 - u_a0 - 1280 y_a0_proc_0 >= -2561
 c90: u_a3 - u_a0 - 850 y_a0_proc_1 >= -2561
 c91: u_a0 - u_a3 - 773 y_a3_proc_0 >= 0
 c92: u_a0 - u_a3 - 907 y_a3_proc_1 >= 0
 c93: u_a4 - u_a0 - 1280 y_a0_proc_0 >= -2561
 c94: u_a4 - u_a0 - 850 y_a0_proc_1 >= -2561
 c95: u_a0 - u_a4 - 1080 y_a4_proc_0 >= 0
 c96: u_a0 - u_a4 - 851 y_a4_proc_1 >= 0
 c97: u_a5 - u_a0 - 1280 y_a0_proc_0 >= -2561
 c98: u_a5 - u_a0 - 850 y_a0_proc_1 >= -2561
 c99: u_a0 - u_a5 - 1277 y_a5_proc_0 >= 0
 c100: u_a0 - u_a5 - 844 y_a5_proc_1 >= 0
 c101: u_a6 - u_a0 - 1280 y_a0_proc_0 >= -2561
 c102: u_a6 - u_a0 - 850 y_a0_proc_1 >= -2561
 c103: u_a0 - u_a6 - 931 y_a6_proc_0 >= 0
 c104: u_a0 - u_a6 - 1038 y_a6_proc_1 >= 0
 c105: u_a7 - u_a0 - 1280 y_a0_proc_0 >= -2560
 c106: u_a0 - u_a7 - 755 y_a7_proc_0 >= -1
 c107: u_a8 - u_a0 - 1280 y_a0_proc_0 >= -1000002560
 c108: u_a8 - u_a0 - 850 y_a0_proc_1 >= -1000000000
 c109: u_a0 - u_a8 - 711 y_a8_proc_0 >= 999997439
 c110: u_a0 - u_a8 - 1129 y_a8_proc_1 >= 999999999
 c111: u_a9 - u_a0 - 1280 y_a0_proc_0 >= -2561
 c112: u_a9 - u_a0 - 850 y_a0_proc_1 >= -1
 c113: u_a0 - u_a9 - 773 y_a9_proc_0 >= -2560
 c114: u_a0 - u_a9 - 914 y_a9_proc_1 >= 0
 c115: u_a10 - u_a0 - 1280 y_a0_proc_0 >= -2560
 c116: u_a10 - u_a0 - 850 y_a0_proc_1 >= -2560
 c117: u_a0 - u_a10 - 724 y_a10_proc_0 >= -1
 c118: u_a0 - u_a10 - 1000 y_a10_proc_1 >= -1
 c119: u_a11 - u_a0 - 850 y_a0_proc_1 >= -1
 c120: u_a0 - u_a11 - 1027 y_a11_proc_1 >= 0
 c121: u_a12 - u_a0 - 1280 y_a0_proc_0 >= -2560
 c122: u_a0 - u_a12 - 852 y_a12_proc_0 >= -1
 c123: u_a13 - u_a0 - 1280 y_a0_proc_0 >= -2560
 c124: u_a0 - u_a13 - 894 y_a13_proc_0 >= -1
 c125: u_a14 - u_a0 - 1280 y_a0_proc_0 >= -2561
 c126: u_a14 - u_a0 - 850 y_a0_proc_1 >= -2561
 c127: u_a0 - u_a14 - 817 y_a14_proc_0 >= 0
 c128: u_a0 - u_a14 - 625 y_a14_proc_1 >= 0
 c129: u_a2 - u_a1 - 1214 y_a1_proc_1 >= 0
 c130: u_a1 - u_a2 - 900 y_a2_proc_1 >= -1
 c131: u_a3 - u_a1 - 1214 y_a1_proc_1 >= -2560
 c132: u_a1 - u_a3 - 907 y_a3_proc_1 >= -1
 c133: u_a4 - u_a1 - 1214 y_a1_proc_1 >= -2560
 c134: u_a1 - u_a4 - 851 y_a4_proc_1 >= -1
 c135: u_a5 - u_a1 - 1214 y_a1_proc_1 >= -2560
 c136: u_a1 - u_a5 - 844 y_a5_proc_1 >= -1
 c137: u_a6 - u_a1 - 1214 y_a1_proc_1 >= -2561
 c138: u_a1 - u_a6 - 1038 y_a6_proc_1 >= 0
 c139: u_a8 - u_a1 - 1214 y_a1_proc_1 >= -999999999
 c140: u_a1 - u_a8 - 1129 y_a8_proc_1 >= 999999998
 c141: u_a9 - u_a1 - 1214 y_a1_proc_1 >= 0
 c142: u_a1 - u_a9 - 914 y_a9_proc_1 >= -1
 c143: u_a10 - u_a1 - 1214 y_a1_proc_1 >= -2560
 c144: u_a1 - u_a10 - 1000 y_a10_proc_1 >= -1
 c145: u_a11 - u_a1 - 1214 y_a1_proc_1 >= -1
 c146: u_a1 - u_a11 - 1027 y_a11_proc_1 >= 0
 c147: u_a14 - u_a1 - 1214 y_a1_proc_1 >= -2561
 c148: u_a1 - u_a14 - 625 y_a14_proc_1 >= 0
 c149: u_a3 - u_a2 - 986 y_a2_proc_0 >= -2561
 c150: u_a3 - u_a2 - 900 y_a2_proc_1 >= -2561
 c151: u_a2 - u_a3 - 773 y_a3_proc_0 >= 0
 c152: u_a2 - u_a3 - 907 y_a3_proc_1 >= 0
 c153: u_a4 - u_a2 - 986 y_a2_proc_0 >= -2561
 c154: u_a4 - u_a2 - 900 y_a2_proc_1 >= -2561
 c155: u_a2 - u_a4 - 1080 y_a4_proc_0 >= 0
 c156: u_a2 - u_a4 - 851 y_a4_proc_1 >= 0
 c157: u_a5 - u_a2 - 986 y_a2_proc_0 >= -2561
 c158: u_a5 - u_a2 - 900 y_a2_proc_1 >= -2561
 c159: u_a2 - u_a5 - 1277 y_a5_proc_0 >= 0
 c160: u_a2 - u_a5 - 844 y_a5_proc_1 >= 0
 c161: u_a6 - u_a2 - 986 y_a2_proc_0 >= -2561
 c162: u_a6 - u_a2 - 900 y_a2_proc_1 >= -2561
 c163: u_a2 - u_a6 - 931 y_a6_proc_0 >= 0
 c164: u_a2 - u_a6 - 1038 y_a6_proc_1 >= 0
 c165: u_a7 - u_a2 - 986 y_a2_proc_0 >= -2560
 c166: u_a2 - u_a7 - 755 y_a7_proc_0 >= -1
 c167: u_a8 - u_a2 - 986 y_a2_proc_0 >= -1000002560
 c168: u_a8 - u_a2 - 900 y_a2_proc_1 >= -1000000000
 c169: u_a2 - u_a8 - 711 y_a8_proc_0 >= 999997439
 c170: u_a2 - u_a8 - 1129 y_a8_proc_1 >= 999999999
 c171: u_a9 - u_a2 - 986 y_a2_proc_0 >= -2561
 c172: u_a9 - u_a2 - 900 y_a2_proc_1 >= -1
 c173: u_a2 - u_a9 - 773 y_a9_proc_0 >= -2560
 c174: u_a2 - u_a9 - 914 y_a9_proc_1 >= 0
 c175: u_a10 - u_a2 - 986 y_a2_proc_0 >= -2560
 c176: u_a10 - u_a2 - 900 y_a2_proc_1 >= -2560
 c177: u_a2 - u_a10 - 724 y_a10_proc_0 >= -1
 c178: u_a2 - u_a10 - 1000 y_a10_proc_1 >= -1
 c179: u_a11 - u_a2 - 900 y_a2_proc_1 >= -1
 c180: u_a2 - u_a11 - 1027 y_a11_proc_1 >= 0
 c181: u_a12 - u_a2 - 986 y_a2_proc_0 >= -2560
 c182: u_a2 - u_a12 - 852 y_a12_proc_0 >= -1
 c183: u_a13 - u_a2 - 986 y_a2_proc_0 >= -2560
 c184: u_a2 - u_a13 - 894 y_a13_proc_0 >= -1
 c185: u_a14 - u_a2 - 986 y_a2_proc_0 >= -2561
 c186: u_a14 - u_a2 - 900 y_a2_proc_1 >= -2561
 c187: u_a2 - u_a14 - 817 y_a14_proc_0 >= 0
 c188: u_a2 - u_a14 - 625 y_a14_proc_1 >= 0
 c189: u_a4 - u_a3 - 773 y_a3_proc_0 >= -1
 c190: u_a4 - u_a3 - 907 y_a3_proc_1 >= -2561
 c191: u_a3 - u_a4 - 1080 y_a4_proc_0 >= 0
 c192: u_a3 - u_a4 - 851 y_a4_proc_1 >= -2560
 c193: u_a5 - u_a3 - 773 y_a3_proc_0 >= 0
 c194: u_a5 - u_a3 - 907 y_a3_proc_1 >= -2560
 c195: u_a3 - u_a5 - 1277 y_a5_proc_0 >= -1
 c196: u_a3 - u_a5 - 844 y_a5_proc_1 >= -2561
 c197: u_a6 - u_a3 - 773 y_a3_proc_0 >= -1
 c198: u_a6 - u_a3 - 907 y_a3_proc_1 >= -2561
 c199: u_a3 - u_a6 - 931 y_a6_proc_0 >= 0
 c200: u_a3 - u_a6 - 1038 y_a6_proc_1 >= -2560
 c201: u_a7 - u_a3 - 773 y_a3_proc_0 >= 0
 c202: u_a3 - u_a7 - 755 y_a7_proc_0 >= -1
 c203: u_a8 - u_a3 - 773 y_a3_proc_0 >= -1000001280
 c204: u_a8 - u_a3 - 907 y_a3_proc_1 >= -1000001280
 c205: u_a3 - u_a8 - 711 y_a8_proc_0 >= 999998719
 c206: u_a3 - u_a8 - 1129 y_a8_proc_1 >= 999998719
 c207: u_a9 - u_a3 - 773 y_a3_proc_0 >= -2560
 c208: u_a9 - u_a3 - 907 y_a3_proc_1 >= -2560
 c209: u_a3 - u_a9 - 773 y_a9_proc_0 >= -1
 c210: u_a3 - u_a9 - 914 y_a9_proc_1 >= -1
 c211: u_a10 - u_a3 - 773 y_a3_proc_0 >= 0
 c212: u_a10 - u_a3 - 907 y_a3_proc_1 >= -2560
 c213: u_a3 - u_a10 - 724 y_a10_proc_0 >= -1
 c214: u_a3 - u_a10 - 1000 y_a10_proc_1 >= -2561
 c215: u_a11 - u_a3 - 907 y_a3_proc_1 >= -2561
 c216: u_a3 - u_a11 - 1027 y_a11_proc_1 >= 0
 c217: u_a12 - u_a3 - 773 y_a3_proc_0 >= 0
 c218: u_a3 - u_a12 - 852 y_a12_proc_0 >= -1
 c219: u_a13 - u_a3 - 773 y_a3_proc_0 >= 0
 c220: u_a3 - u_a13 - 894 y_a13_proc_0 >= -1
 c221: u_a14 - u_a3 - 773 y_a3_proc_0 >= -1
 c222: u_a14 - u_a3 - 907 y_a3_proc_1 >= -2561
 c223: u_a3 - u_a14 - 817 y_a14_proc_0 >= 0
 c224: u_a3 - u_a14 - 625 y_a14_proc_1 >= -2560
 c225: u_a5 - u_a4 - 1080 y_a4_proc_0 >= 0
 c226: u_a5 - u_a4 - 851 y_a4_proc_1 >= -2560
 c227: u_a4 - u_a5 - 1277 y_a5_proc_0 >= -1
 c228: u_a4 - u_a5 - 844 y_a5_proc_1 >= -2561
 c229: u_a6 - u_a4 - 1080 y_a4_proc_0 >= -1
 c230: u_a6 - u_a4 - 851 y_a4_proc_1 >= -2561
 c231: u_a4 - u_a6 - 931 y_a6_proc_0 >= 0
 c232: u_a4 - u_a6 - 1038 y_a6_proc_1 >= -2560
 c233: u_a7 - u_a4 - 1080 y_a4_proc_0 >= 0
 c234: u_a4 - u_a7 - 755 y_a7_proc_0 >= -1
 c235: u_a8 - u_a4 - 1080 y_a4_proc_0 >= -1000001280
 c236: u_a8 - u_a4 - 851 y_a4_proc_1 >= -1000001280
 c237: u_a4 - u_a8 - 711 y_a8_proc_0 >= 999998719
 c238: u_a4 - u_a8 - 1129 y_a8_proc_1 >= 999998719
 c239: u_a9 - u_a4 - 1080 y_a4_proc_0 >= -2560
 c240: u_a9 - u_a4 - 851 y_a4_proc_1 >= -2560
 c241: u_a4 - u_a9 - 773 y_a9_proc_0 >= -1
 c242: u_a4 - u_a9 - 914 y_a9_proc_1 >= -1
 c243: u_a10 - u_a4 - 1080 y_a4_proc_0 >= 0
 c244: u_a10 - u_a4 - 851 y_a4_proc_1 >= -2560
 c245: u_a4 - u_a10 - 724 y_a10_proc_0 >= -1
 c246: u_a4 - u_a10 - 1000 y_a10_proc_1 >= -2561
 c247: u_a11 - u_a4 - 851 y_a4_proc_1 >= -2561
 c248: u_a4 - u_a11 - 1027 y_a11_proc_1 >= 0
 c249: u_a12 - u_a4 - 1080 y_a4_proc_0 >= 0
 c250: u_a4 - u_a12 - 852 y_a12_proc_0 >= -1
 c251: u_a13 - u_a4 - 1080 y_a4_proc_0 >= 0
 c252: u_a4 - u_a13 - 894 y_a13_proc_0 >= -1
 c253: u_a14 - u_a4 - 1080 y_a4_proc_0 >= -1
 c254: u_a14 - u_a4 - 851 y_a4_proc_1 >= -2561
 c255: u_a4 - u_a14 - 817 y_a14_proc_0 >= 0
 c256: u_a4 - u_a14 - 625 y_a14_proc_1 >= -2560
 c257: u_a6 - u_a5 - 1277 y_a5_proc_0 >= -1
 c258: u_a6 - u_a5 - 844 y_a5_proc_1 >= -2561
 c259: u_a5 - u_a6 - 931 y_a6_proc_0 >= 0
 c260: u_a5 - u_a6 - 1038 y_a6_proc_1 >= -2560
 c261: u_a7 - u_a5 - 1277 y_a5_proc_0 >= 0
 c262: u_a5 - u_a7 - 755 y_a7_proc_0 >= -1
 c263: u_a8 - u_a5 - 1277 y_a5_proc_0 >= -1000001280
 c264: u_a8 - u_a5 - 844 y_a5_proc_1 >= -1000001280
 c265: u_a5 - u_a8 - 711 y_a8_proc_0 >= 999998719
 c266: u_a5 - u_a8 - 1129 y_a8_proc_1 >= 999998719
 c267: u_a9 - u_a5 - 1277 y_a5_proc_0 >= -2561
 c268: u_a9 - u_a5 - 844 y_a5_proc_1 >= -2561
 c269: u_a5 - u_a9 - 773 y_a9_proc_0 >= 0
 c270: u_a5 - u_a9 - 914 y_a9_proc_1 >= 0
 c271: u_a10 - u_a5 - 1277 y_a5_proc_0 >= 0
 c272: u_a10 - u_a5 - 844 y_a5_proc_1 >= -2560
 c273: u_a5 - u_a10 - 724 y_a10_proc_0 >= -1
 c274: u_a5 - u_a10 - 1000 y_a10_proc_1 >= -2561
 c275: u_a11 - u_a5 - 844 y_a5_proc_1 >= -2561
 c276: u_a5 - u_a11 - 1027 y_a11_proc_1 >= 0
 c277: u_a12 - u_a5 - 1277 y_a5_proc_0 >= 0
 c278: u_a5 - u_a12 - 852 y_a12_proc_0 >= -1
 c279: u_a13 - u_a5 - 1277 y_a5_proc_0 >= 0
 c280: u_a5 - u_a13 - 894 y_a13_proc_0 >= -1
 c281: u_a14 - u_a5 - 1277 y_a5_proc_0 >= -1
 c282: u_a14 - u_a5 - 844 y_a5_proc_1 >= -2561
 c283: u_a5 - u_a14 - 817 y_a14_proc_0 >= 0
 c284: u_a5 - u_a14 - 625 y_a14_proc_1 >= -2560
 c285: u_a7 - u_a6 - 931 y_a6_proc_0 >= 0
 c286: u_a6 - u_a7 - 755 y_a7_proc_0 >= -1
 c287: u_a8 - u_a6 - 931 y_a6_proc_0 >= -1000001280
 c288: u_a8 - u_a6 - 1038 y_a6_proc_1 >= -1000001280
 c289: u_a6 - u_a8 - 711 y_a8_proc_0 >= 999998719
 c290: u_a6 - u_a8 - 1129 y_a8_proc_1 >= 999998719
 c291: u_a9 - u_a6 - 931 y_a6_proc_0 >= -2560
 c292: u_a9 - u_a6 - 1038 y_a6_proc_1 >= -2560
 c293: u_a6 - u_a9 - 773 y_a9_proc_0 >= -1
 c294: u_a6 - u_a9 - 914 y_a9_proc_1 >= -1
 c295: u_a10 - u_a6 - 931 y_a6_proc_0 >= 0
 c296: u_a10 - u_a6 - 1038 y_a6_proc_1 >= -2560
 c297: u_a6 - u_a10 - 724 y_a10_proc_0 >= -1
 c298: u_a6 - u_a10 - 1000 y_a10_proc_1 >= -2561
 c299: u_a11 - u_a6 - 1038 y_a6_proc_1 >= -2561
 c300: u_a6 - u_a11 - 1027 y_a11_proc_1 >= 0
 c301: u_a12 - u_a6 - 931 y_a6_proc_0 >= 0
 c302: u_a6 - u_a12 - 852 y_a12_proc_0 >= -1
 c303: u_a13 - u_a6 - 931 y_a6_proc_0 >= 0
 c304: u_a6 - u_a13 - 894 y_a13_proc_0 >= -1
 c305: u_a14 - u_a6 - 931 y_a6_proc_0 >= 0
 c306: u_a14 - u_a6 - 1038 y_a6_proc_1 >= -2560
 c307: u_a6 - u_a14 - 817 y_a14_proc_0 >= -1
 c308: u_a6 - u_a14 - 625 y_a14_proc_1 >= -2561
 c309: u_a8 - u_a7 - 755 y_a7_proc_0 >= -1000001280
 c310: u_a7 - u_a8 - 711 y_a8_proc_0 >= 999998719
 c311: u_a9 - u_a7 - 755 y_a7_proc_0 >= -2561
 c312: u_a7 - u_a9 - 773 y_a9_proc_0 >= 0
 c313: u_a10 - u_a7 - 755 y_a7_proc_0 >= -1
 c314: u_a7 - u_a10 - 724 y_a10_proc_0 >= 0
 c315: u_a12 - u_a7 - 755 y_a7_proc_0 >= -1
 c316: u_a7 - u_a12 - 852 y_a12_proc_0 >= 0
 c317: u_a13 - u_a7 - 755 y_a7_proc_0 >= -1
 c318: u_a7 - u_a13 - 894 y_a13_proc_0 >= 0
 c319: u_a14 - u_a7 - 755 y_a7_proc_0 >= -1
 c320: u_a7 - u_a14 - 817 y_a14_proc_0 >= 0
 c321: u_a9 - u_a8 - 711 y_a8_proc_0 >= 999997439
 c322: u_a9 - u_a8 - 1129 y_a8_proc_1 >= 999999999
 c323: u_a8 - u_a9 - 773 y_a9_proc_0 >= -1000002560
 c324: u_a8 - u_a9 - 914 y_a9_proc_1 >= -1000000000
 c325: u_a10 - u_a8 - 711 y_a8_proc_0 >= 999997439
 c326: u_a10 - u_a8 - 1129 y_a8_proc_1 >= 999997439
 c327: u_a8 - u_a10 - 724 y_a10_proc_0 >= -1000000000
 c328: u_a8 - u_a10 - 1000 y_a10_proc_1 >= -1000000000
 c329: u_a11 - u_a8 - 1129 y_a8_proc_1 >= 999999998
 c330: u_a8 - u_a11 - 1027 y_a11_proc_1 >= -999999999
 c331: u_a12 - u_a8 - 711 y_a8_proc_0 >= 999997439
 c332: u_a8 - u_a12 - 852 y_a12_proc_0 >= -1000000000
 c333: u_a13 - u_a8 - 711 y_a8_proc_0 >= 999997439
 c334: u_a8 - u_a13 - 894 y_a13_proc_0 >= -1000000000
 c335: u_a14 - u_a8 - 711 y_a8_proc_0 >= 999997438
 c336: u_a14 - u_a8 - 1129 y_a8_proc_1 >= 999997438
 c337: u_a8 - u_a14 - 817 y_a14_proc_0 >= -999999999
 c338: u_a8 - u_a14 - 625 y_a14_proc_1 >= -999999999
 c339: u_a10 - u_a9 - 773 y_a9_proc_0 >= -2560
 c340: u_a10 - u_a9 - 914 y_a9_proc_1 >= -2560
 c341: u_a9 - u_a10 - 724 y_a10_proc_0 >= -1
 c342: u_a9 - u_a10 - 1000 y_a10_proc_1 >= -1
 c343: u_a11 - u_a9 - 914 y_a9_proc_1 >= -1
 c344: u_a9 - u_a11 - 1027 y_a11_proc_1 >= 0
 c345: u_a12 - u_a9 - 773 y_a9_proc_0 >= -2560
 c346: u_a9 - u_a12 - 852 y_a12_proc_0 >= -1
 c347: u_a13 - u_a9 - 773 y_a9_proc_0 >= -2560
 c348: u_a9 - u_a13 - 894 y_a13_proc_0 >= -1
 c349: u_a14 - u_a9 - 773 y_a9_proc_0 >= -2561
 c350: u_a14 - u_a9 - 914 y_a9_proc_1 >= -2561
 c351: u_a9 - u_a14 - 817 y_a14_proc_0 >= 0
 c352: u_a9 - u_a14 - 625 y_a14_proc_1 >= 0
 c353: u_a11 - u_a10 - 1000 y_a10_proc_1 >= -2561
 c354: u_a10 - u_a11 - 1027 y_a11_proc_1 >= 0
 c355: u_a12 - u_a10 - 724 y_a10_proc_0 >= 0
 c356: u_a10 - u_a12 - 852 y_a12_proc_0 >= -1
 c357: u_a13 - u_a10 - 724 y_a10_proc_0 >= -1
 c358: u_a10 - u_a13 - 894 y_a13_proc_0 >= 0
 c359: u_a14 - u_a10 - 724 y_a10_proc_0 >= -1
 c360: u_a14 - u_a10 - 1000 y_a10_proc_1 >= -2561
 c361: u_a10 - u_a14 - 817 y_a14_proc_0 >= 0
 c362: u_a10 - u_a14 - 625 y_a14_proc_1 >= -2560
 c363: u_a14 - u_a11 - 1027 y_a11_proc_1 >= -2560
 c364: u_a11 - u_a14 - 625 y_a14_proc_1 >= -1
 c365: u_a13 - u_a12 - 852 y_a12_proc_0 >= -1
 c366: u_a12 - u_a13 - 894 y_a13_proc_0 >= 0
 c367: u_a14 - u_a12 - 852 y_a12_proc_0 >= -1
 c368: u_a12 - u_a14 - 817 y_a14_proc_0 >= 0
 c369: u_a14 - u_a13 - 894 y_a13_proc_0 >= -1
 c370: u_a13 - u_a14 - 817 y_a14_proc_0 >= 0

Bounds
End
